32	0

0	2	2	5
3	2	3	4
10	3	7	9	10
8	1	6
6	1	6
2	3	7	9	10
4	2	8	11
9	2	13	15
10	1	12
5	1	11
4	1	12
3	2	13	15
2	1	14
7	3	16	18	20
9	3	16	18	20
6	2	17	19
3	3	21	23	24
7	4	19	21	23	24
4	2	22	25
9	3	21	23	24
6	2	22	25
7	1	29
10	1	28
8	1	26
2	1	26
1	1	27
1	1	28
6	1	29
1	2	30	31
10	1	32
8	1	32
0	0
